*Heading
WP08 M1 2x2 patch - restart seed through total time 660 s
*Include, Input=wp08_patch_model.inc
*Step, Name=INITIALIZE, Nlgeom=NO, Inc=1
*Static
60.0, 60.0, 60.0, 60.0
*Boundary, Op=NEW
LEFT, 1, 1, 0.0
BOTTOM, 2, 2, 0.0
ALLNODES, 8, 8, 1.0E7
ALLNODES, 14, 14, 0.10
*Restart, Write, Frequency=1
*End Step
*Step, Name=COMMIT_SEED, Nlgeom=NO, Inc=10
*Static
60.0, 600.0, 60.0, 60.0
*Boundary, Op=NEW
LEFT, 1, 1, 0.0
BOTTOM, 2, 2, 0.0
ALLNODES, 8, 8, 1.0E7
ALLNODES, 14, 14, 0.10
*Restart, Write, Frequency=10
*Output, Field, Frequency=1
*Node Output, Nset=ALLNODES
U, RF
*End Step
